\ This file was automatically generated by Zimpl
\ set Flight := {"Ithaca to Newark", "Newark to Boston", "Ithaca to Boston"};
\ set Fare := {"Y", "B", "M"};
\ param prices[Fare * Flight] :=     |"Ithaca to Newark", "Newark to Boston", "Ithaca to Boston"| |"Y"|               300,     
\            160,                360| |"B"|               220,                130,                280| |"M"|               100,
\                  80,                140|;
\ param seating[Fare * Flight] :=     |"Ithaca to Newark", "Newark to Boston", "Ithaca to Boston"| |"Y"|                 4,    
\               8,                  3| |"B"|                 8,                 13,                 10| |"M"|                22
\ ,                 20,                 18|;
\ var passenger[Fare * Flight] integer >= 0;
\ maximize revenue: sum <fare, flight> in Fare * Flight:     prices[fare, flight] * passenger[fare, flight];
\ subto seating_limit: forall <fare, flight> in Fare * Flight:     passenger[fare, flight] <= seating[fare, flight];
\ subto flight_limit: forall <flight> in Flight:     (sum <fare> in Fare: passenger[fare, flight]) <= 30;
\Problem name: hw1_airline.zpl
Maximize
 revenue:  +300 passenger$Y$It@0 +160 passenger$Y$Ne@1 +360 passenger$Y$It@2 +220 passenger$B$It@3 +130 passenger$B$Ne@4 +280 passenger$B$It@5
  +100 passenger$M$It@6 +80 passenger$M$Ne@7 +140 passenger$M$It@8
Subject to
 seating_limit_1:
  + passenger$Y$It@0 <= 4
 seating_limit_2:
  + passenger$Y$Ne@1 <= 8
 seating_limit_3:
  + passenger$Y$It@2 <= 3
 seating_limit_4:
  + passenger$B$It@3 <= 8
 seating_limit_5:
  + passenger$B$Ne@4 <= 13
 seating_limit_6:
  + passenger$B$It@5 <= 10
 seating_limit_7:
  + passenger$M$It@6 <= 22
 seating_limit_8:
  + passenger$M$Ne@7 <= 20
 seating_limit_9:
  + passenger$M$It@8 <= 18
 flight_limit_1:
  + passenger$M$It@6 + passenger$B$It@3 + passenger$Y$It@0 <= 30
 flight_limit_2:
  + passenger$M$Ne@7 + passenger$B$Ne@4 + passenger$Y$Ne@1 <= 30
 flight_limit_3:
  + passenger$M$It@8 + passenger$B$It@5 + passenger$Y$It@2 <= 30
Bounds
 0 <= passenger$Y$It@0 <= +inf
 0 <= passenger$Y$Ne@1 <= +inf
 0 <= passenger$Y$It@2 <= +inf
 0 <= passenger$B$It@3 <= +inf
 0 <= passenger$B$Ne@4 <= +inf
 0 <= passenger$B$It@5 <= +inf
 0 <= passenger$M$It@6 <= +inf
 0 <= passenger$M$Ne@7 <= +inf
 0 <= passenger$M$It@8 <= +inf
General
 passenger$Y$It@0
 passenger$Y$Ne@1
 passenger$Y$It@2
 passenger$B$It@3
 passenger$B$Ne@4
 passenger$B$It@5
 passenger$M$It@6
 passenger$M$Ne@7
 passenger$M$It@8
End
